c File: instances/16_0.60_2.col
c
c Description: Random graph of size 16 vertices and P(0.6) of edges between any two vertices.
p col 16 120
e 1 3
e 1 5
e 1 7
e 1 9
e 1 10
e 1 11
e 1 14
e 1 15
e 1 16
e 2 4
e 2 7
e 2 8
e 2 9
e 2 11
e 2 12
e 2 16
e 3 5
e 3 6
e 3 7
e 3 8
e 3 10
e 3 12
e 3 13
e 3 14
e 3 15
e 4 5
e 4 7
e 4 9
e 4 11
e 4 12
e 4 13
e 4 14
e 4 16
e 5 6
e 5 7
e 5 8
e 5 9
e 5 11
e 5 13
e 5 14
e 5 15
e 5 16
e 6 8
e 6 9
e 6 11
e 6 12
e 6 13
e 6 15
e 6 16
e 7 8
e 7 9
e 7 11
e 7 12
e 7 13
e 7 14
e 8 9
e 8 10
e 8 12
e 8 13
e 8 14
e 9 11
e 9 12
e 9 14
e 9 15
e 10 11
e 10 14
e 10 16
e 11 12
e 11 13
e 11 16
e 12 14
e 12 16
e 13 14
e 13 15
e 14 15
e 14 16
e 15 16